919351
0,65,3,6,94,24,77,50,78,28,39,93,25,16,11,18,42,23,58,89,70,33,27,45,66,57,60,34,41,96,26,1,2,63,4,84,88,7,52,90,43,54,71,35,49,87,82,14,15,81,10,22,97,53,64,51,21,72,83,91,38,13,80,85,44,86,75,37,47,36,73,69,31,12,79,98,67,62,59,30,61,92,48,9,55,17,68,74,5,40,76,29,95,20,19,8,32,56,46,0